  8	55
 22
  0	 30	  2	  8	 85	 24	 57	 41	 96	 50	105	 10	 65	 31	 14	 63	 79	 86	 69	  7	 62	111	
 10
  0	 36	 29	 21	 84	 91	  9	 76	 64	111	
 16
  0	 52	107	 19	 40	 74	 22	 95	  6	 61	 46	 77	101	 13	 68	111	
 14
  0	 12	 11	 33	 67	 88	 66	 20	  3	  5	 75	 58	 60	111	
 14
  0	 55	 16	 37	110	 92	 26	  1	 81	 32	 71	 56	 87	111	
  8
  0	 53	 15	108	 70	 34	 89	111	
 20
  0	 35	 23	 78	 90	 45	 25	  4	100	 59	 80	 49	 42	 97	 28	104	 83	 47	102	111	
 22
  0	 43	 48	 51	 18	103	 98	 54	 39	 73	 17	106	 38	 27	 72	 94	 93	109	 82	 44	 99	111	
